100 8
669 509
648 512
287 961
270 826
333 378
696 646
309 692
369 493
497 824
226 825
646 245
521 342
196 812
465 708
523 352
504 800
543 805
310 742
834 81
371 334
554 854
588 932
326 927
220 908
393 375
797 469
751 79
67 733
475 779
489 355
398 382
73 783
774 632
439 808
185 852
394 469
124 843
705 47
480 749
723 503
546 901
661 819
405 549
493 730
583 134
559 238
707 512
15 826
706 649
384 681
252 960
908 259
605 937
318 830
780 773
590 958
741 722
100 271
220 487
422 733
388 854
691 149
557 234
372 256
704 206
161 747
355 710
609 884
762 110
415 542
448 329
697 89
705 645
506 356
779 656
243 908
736 52
426 809
148 296
440 792
887 300
875 319
648 185
288 892
710 784
671 768
506 381
524 181
539 760
49 676
677 726
785 613
530 801
857 282
385 586
567 759
193 689
665 146
657 831
798 300
